;; sequence(s): A3951-A168830-A168878-A168926-A168974-A169022-A169070-A169118-A169166-A169214-A169262-A169310-A169358-A169406-A169454-A169502-A169550-A170018-A170066-A170114-A170162-A170210-A170258-A170306-A170354-A170402-A170450-A170498-A170546-A170594-A170642-A170690
;; terms: 1 9 72 576 4608 36864 294912 2359296 18874368 150994944 1207959552 9663676416 77309411328 618475290624 4947802324992 39582418599936 316659348799488 2533274790395904 20266198323167232 162129586585337856
;; small program: loop((2 * (2 * (x + x))) + (1 div x), x, 1)
;; fast program: loop((x * x) * x, 1, loop(x + x, x - 1, 1)) * (if x <= 0 then 1 else (1 + (2 * (2 + 2))))
(set-logic UFNIA)
(define-fun divf ((a Int) (b Int)) Int (ite (< 0 b) (div a b) (div (- a) (- b))))
(declare-fun f0 (Int) Int)
(declare-fun g0 (Int) Int)
(declare-fun h0 () Int)
(declare-fun u0 (Int Int) Int)
(declare-fun v0 (Int) Int)
(declare-fun small (Int) Int)
(declare-fun f1 (Int) Int)
(declare-fun g1 () Int)
(declare-fun f2 (Int) Int)
(declare-fun g2 (Int) Int)
(declare-fun h2 () Int)
(declare-fun u2 (Int Int) Int)
(declare-fun v2 (Int) Int)
(declare-fun h1 (Int) Int)
(declare-fun u1 (Int Int) Int)
(declare-fun v1 (Int) Int)
(declare-fun fast (Int) Int)
(assert (forall ((x Int)) (= (f0 x) (+ (* 2 (* 2 (+ x x))) (divf 1 x)))))
(assert (forall ((x Int)) (= (g0 x) x)))
(assert (= h0 1))
(assert (forall ((x Int) (y Int)) (= (u0 x y) (ite (<= x 0) y (f0 (u0 (- x 1) y))))))
(assert (forall ((x Int)) (= (v0 x) (u0 (g0 x) h0))))
(assert (forall ((x Int)) (= (small x) (v0 x))))
(assert (forall ((x Int)) (= (f1 x) (* (* x x) x))))
(assert (= g1 1))
(assert (forall ((x Int)) (= (f2 x) (+ x x))))
(assert (forall ((x Int)) (= (g2 x) (- x 1))))
(assert (= h2 1))
(assert (forall ((x Int) (y Int)) (= (u2 x y) (ite (<= x 0) y (f2 (u2 (- x 1) y))))))
(assert (forall ((x Int)) (= (v2 x) (u2 (g2 x) h2))))
(assert (forall ((x Int)) (= (h1 x) (v2 x))))
(assert (forall ((x Int) (y Int)) (= (u1 x y) (ite (<= x 0) y (f1 (u1 (- x 1) y))))))
(assert (forall ((x Int)) (= (v1 x) (u1 g1 (h1 x)))))
(assert (forall ((x Int)) (= (fast x) (* (v1 x) (ite (<= x 0) 1 (+ 1 (* 2 (+ 2 2))))))))
(assert (exists ((c Int)) (and (>= c 0) (not (= (small c) (fast c))))))
(check-sat)
